NAME : single
TYPE : ATSP
DIMENSION : 8
EDGE_WEIGHT_TYPE : EXPLICIT
EDGE_WEIGHT_FORMAT : FULL_MATRIX
EDGE_WEIGHT_SECTION
0 1908 1738 100347 501 934 259 383 
0 0 638 1038 1049 916 1235 1369 
0 638 0 468 1111 1123 1202 1370 
0 1038 468 0 100000 100000 100000 100000 
0 1049 1111 100000 0 446 285 292 
0 916 1123 100000 446 0 625 720 
0 1235 1202 100000 285 625 0 196 
0 1369 1370 100000 292 720 196 0 
EOF